4437
4561
4577
4556
4542
4590
4540
4400
4581
4535
4557
4533
4580
4502
4609
4541
4608
4585
4531
4532
4510
4479
4614
4604
4559
4548
4598
4569
4547
4516
4523
4548
4551
4586
4555
4530
4533
4576
4575
4573
4452
4520
4591
4432
4560
4642
4385
4517
4497
4585
4491
4570
4582
4599
4577
4582
4608
4567
4532
4567
4565
4617
4603
4599
4501
4549
4512
4597
4524
4432
4557
4581
4577
4545
4540
4475
4474
4536
4555
4531
4578
4574
4544
4495
4486
4578
4376
4560
4525
4501
4532
4563
4568
4540
4572
4563
4585
4540
4602
4579
